c File: instances/14_0.35_1.col
c
c Description: Random graph of size 14 vertices and P(0.35) of edges between any two vertices.
p col 14 91
e 1 6
e 1 7
e 1 9
e 1 10
e 1 12
e 1 14
e 2 4
e 2 9
e 2 13
e 2 14
e 3 5
e 3 6
e 3 7
e 3 12
e 3 13
e 3 14
e 4 7
e 4 9
e 4 10
e 4 12
e 5 7
e 5 12
e 5 14
e 6 7
e 6 13
e 7 11
e 7 13
e 7 14
e 8 9
e 8 11
e 8 14
e 9 11
e 9 13
e 10 12
e 10 14
e 11 14
e 13 14